Solution in this episode: [35, 136, 307, 442, 273, 221, 171, 0, 154, 408, 205, 476, 358, 119, 460, 340, 69, 238, 52, 425, 256, 102, 290, 85, 494, 323, 375, 187, 392, 17, 36, 139, 308, 445, 42, 146, 147, 46, 276, 224, 152, 173, 4, 49, 316, 448, 156, 410, 319, 277, 320, 207, 479, 230, 417, 452, 232, 360, 122, 281, 237, 454, 461, 343, 7, 458, 180, 70, 240, 419, 469, 182, 423, 54, 429, 163, 10, 471, 185, 258, 105, 283, 76, 80, 286, 292, 87, 165, 474, 209, 430, 495, 326, 246, 84, 377, 191, 485, 213, 11, 14, 393, 19, 169, 93, 250, 487, 367, 192, 492, 254, 369, 502, 215, 124, 219, 435, 398, 372, 438, 98, 346, 439, 27, 401, 196, 61, 100, 349, 28, 31, 505, 260, 509, 402, 405, 129, 112, 64, 200, 299, 66, 132, 265, 203, 330, 352, 113, 116, 355, 379, 300, 135, 332, 303, 334, 384, 268, 337, 271, 387, 390]
